c generated by sgen
p cnf 121 252
-2 -3 -4 0
-1 -3 -4 0
-1 -2 -4 0
-1 -2 -3 0
-6 -7 -8 0
-5 -7 -8 0
-5 -6 -8 0
-5 -6 -7 0
-10 -11 -12 0
-9 -11 -12 0
-9 -10 -12 0
-9 -10 -11 0
-14 -15 -16 0
-13 -15 -16 0
-13 -14 -16 0
-13 -14 -15 0
-18 -19 -20 0
-17 -19 -20 0
-17 -18 -20 0
-17 -18 -19 0
-22 -23 -24 0
-21 -23 -24 0
-21 -22 -24 0
-21 -22 -23 0
-26 -27 -28 0
-25 -27 -28 0
-25 -26 -28 0
-25 -26 -27 0
-30 -31 -32 0
-29 -31 -32 0
-29 -30 -32 0
-29 -30 -31 0
-34 -35 -36 0
-33 -35 -36 0
-33 -34 -36 0
-33 -34 -35 0
-38 -39 -40 0
-37 -39 -40 0
-37 -38 -40 0
-37 -38 -39 0
-42 -43 -44 0
-41 -43 -44 0
-41 -42 -44 0
-41 -42 -43 0
-46 -47 -48 0
-45 -47 -48 0
-45 -46 -48 0
-45 -46 -47 0
-50 -51 -52 0
-49 -51 -52 0
-49 -50 -52 0
-49 -50 -51 0
-54 -55 -56 0
-53 -55 -56 0
-53 -54 -56 0
-53 -54 -55 0
-58 -59 -60 0
-57 -59 -60 0
-57 -58 -60 0
-57 -58 -59 0
-62 -63 -64 0
-61 -63 -64 0
-61 -62 -64 0
-61 -62 -63 0
-66 -67 -68 0
-65 -67 -68 0
-65 -66 -68 0
-65 -66 -67 0
-70 -71 -72 0
-69 -71 -72 0
-69 -70 -72 0
-69 -70 -71 0
-74 -75 -76 0
-73 -75 -76 0
-73 -74 -76 0
-73 -74 -75 0
-78 -79 -80 0
-77 -79 -80 0
-77 -78 -80 0
-77 -78 -79 0
-82 -83 -84 0
-81 -83 -84 0
-81 -82 -84 0
-81 -82 -83 0
-86 -87 -88 0
-85 -87 -88 0
-85 -86 -88 0
-85 -86 -87 0
-90 -91 -92 0
-89 -91 -92 0
-89 -90 -92 0
-89 -90 -91 0
-94 -95 -96 0
-93 -95 -96 0
-93 -94 -96 0
-93 -94 -95 0
-98 -99 -100 0
-97 -99 -100 0
-97 -98 -100 0
-97 -98 -99 0
-102 -103 -104 0
-101 -103 -104 0
-101 -102 -104 0
-101 -102 -103 0
-106 -107 -108 0
-105 -107 -108 0
-105 -106 -108 0
-105 -106 -107 0
-110 -111 -112 0
-109 -111 -112 0
-109 -110 -112 0
-109 -110 -111 0
-114 -115 -116 0
-113 -115 -116 0
-113 -114 -116 0
-113 -114 -115 0
-117 -118 -119 0
-117 -118 -120 0
-117 -118 -121 0
-117 -119 -120 0
-117 -119 -121 0
-117 -120 -121 0
-118 -119 -120 0
-118 -119 -121 0
-118 -120 -121 0
-119 -120 -121 0
18 2 21 0
12 2 21 0
12 18 21 0
12 18 2 0
58 27 98 0
43 27 98 0
43 58 98 0
43 58 27 0
105 13 84 0
104 13 84 0
104 105 84 0
104 105 13 0
81 71 99 0
29 71 99 0
29 81 99 0
29 81 71 0
109 97 39 0
45 97 39 0
45 109 39 0
45 109 97 0
7 24 70 0
53 24 70 0
53 7 70 0
53 7 24 0
72 10 118 0
33 10 118 0
33 72 118 0
33 72 10 0
111 66 63 0
44 66 63 0
44 111 63 0
44 111 66 0
110 1 76 0
101 1 76 0
101 110 76 0
101 110 1 0
51 116 34 0
102 116 34 0
102 51 34 0
102 51 116 0
48 16 113 0
119 16 113 0
119 48 113 0
119 48 16 0
73 30 46 0
88 30 46 0
88 73 46 0
88 73 30 0
85 55 52 0
28 55 52 0
28 85 52 0
28 85 55 0
11 26 94 0
92 26 94 0
92 11 94 0
92 11 26 0
67 77 49 0
47 77 49 0
47 67 49 0
47 67 77 0
93 82 60 0
114 82 60 0
114 93 60 0
114 93 82 0
106 64 96 0
74 64 96 0
74 106 96 0
74 106 64 0
89 108 17 0
69 108 17 0
69 89 17 0
69 89 108 0
90 56 115 0
79 56 115 0
79 90 115 0
79 90 56 0
42 95 3 0
36 95 3 0
36 42 3 0
36 42 95 0
80 22 35 0
83 22 35 0
83 80 35 0
83 80 22 0
62 20 6 0
100 20 6 0
100 62 6 0
100 62 20 0
107 8 25 0
65 8 25 0
65 107 25 0
65 107 8 0
75 14 19 0
50 14 19 0
50 75 19 0
50 75 14 0
120 23 86 0
37 23 86 0
37 120 86 0
37 120 23 0
61 9 59 0
87 9 59 0
87 61 59 0
87 61 9 0
15 54 68 0
4 54 68 0
4 15 68 0
4 15 54 0
31 57 78 0
38 57 78 0
38 31 78 0
38 31 57 0
103 40 5 0
121 40 5 0
121 103 5 0
121 103 40 0
91 32 112 0
91 32 117 0
91 32 41 0
91 112 117 0
91 112 41 0
91 117 41 0
32 112 117 0
32 112 41 0
32 117 41 0
112 117 41 0
